Problem:    
Rows:       260
Columns:    89 (72 integer, 72 binary)
Non-zeros:  974
Status:     INTEGER OPTIMAL
Objective:  value = 42.395791 (MINimum)

   No.   Row name        Activity     Lower bound   Upper bound
------ ------------    ------------- ------------- -------------
     1 r.5                    1042.4             0               
     2 r.6                  -978.222      -983.391               
     3 r.7                   42.3958             0               
     4 r.8                   27.9644      -983.487               
     5 r.9                   42.3958             0               
     6 r.10                 -979.589      -983.408               
     7 r.11                   1042.4             0               
     8 r.12                 -980.846      -984.665               
     9 r.13                   1042.4             0               
    10 r.14                 -976.049      -999.581               
    11 r.15                  42.3958             0               
    12 r.16                  27.9644      -998.002               
    13 r.17                   1042.4             0               
    14 r.18                  -973.66      -999.366               
    15 r.19                  42.3958             0               
    16 r.20                  26.3397      -997.541               
    17 r.21                  42.3958             0               
    18 r.22                  28.1949      -991.968               
    19 r.23                   1042.4             0               
    20 r.24                 -971.805      -992.583               
    21 r.25                   1042.4             0               
    22 r.26                  -999.69       -999.69               
    23 r.27                  42.3958             0               
    24 r.28                 -998.679      -998.679               
    25 r.29                   1042.4             0               
    26 r.30                 -957.604      -983.944               
    27 r.31                  42.3958             0               
    28 r.32                  42.3958      -988.304               
    29 r.33                  42.3958             0               
    30 r.34                  42.3958      -977.048               
    31 r.35                   1042.4             0               
    32 r.36                 -957.604      -985.799               
    33 r.37                        1             1             = 
    34 r.38                        1             1             = 
    35 r.39                        1             1             = 
    36 r.40                        1             1             = 
    37 r.41                        1             1             = 
    38 r.42                        1             1             = 
    39 r.43                        1             1             = 
    40 r.44                        1             1             = 
    41 r.45                     1001             2               
    42 r.46                    -1001         -1001               
    43 r.47                  996.878      -983.408               
    44 r.48                     1001             2               
    45 r.49                    -1001         -1001               
    46 r.50                  1992.81      -984.665               
    47 r.51                        2             2               
    48 r.52                       -2         -1001               
    49 r.53                 -999.581      -999.581               
    50 r.54                     1000             2               
    51 r.55                    -1000         -1001               
    52 r.56                  2001.62      -998.002               
    53 r.57                        2             2               
    54 r.58                       -2         -1001               
    55 r.59                 -997.193      -999.366               
    56 r.60                     1000             2               
    57 r.61                    -1000         -1001               
    58 r.62                     2000      -997.541               
    59 r.63                     1001             2               
    60 r.64                    -1001         -1001               
    61 r.65                  2004.66      -991.968               
    62 r.66                     1001             2               
    63 r.67                    -1001         -1001               
    64 r.68                  2001.86      -992.583               
    65 r.69                 -982.041      -983.391               
    66 r.70                  24.1455      -983.487               
    67 r.71                   23.706      -983.391               
    68 r.72                  1029.89      -983.487               
    69 r.73                 -981.137      -983.944               
    70 r.74                  18.8633      -988.304               
    71 r.75                 -983.944      -983.944               
    72 r.76                  16.0561      -988.304               
    73 r.77                  18.8633      -977.048               
    74 r.78                 -981.137      -985.799               
    75 r.79                  16.0561      -977.048               
    76 r.80                 -983.944      -985.799               
    77 r.81                     1001             2               
    78 r.82                    -1001         -1001               
    79 r.83                  3003.12       16.6093               
    80 r.84                     1001             2               
    81 r.85                    -1001         -1001               
    82 r.86                  2007.19       16.5131               
    83 r.87                     1001             2               
    84 r.88                    -1001         -1001               
    85 r.89                   3005.3      -999.581               
    86 r.90                     1001             2               
    87 r.91                    -1001         -1001               
    88 r.92                  2007.19      -998.002               
    89 r.93                     1001             2               
    90 r.94                    -1001         -1001               
    91 r.95                  3007.68      -999.366               
    92 r.96                     1001             2               
    93 r.97                    -1001         -1001               
    94 r.98                  2005.56      -997.541               
    95 r.99                     1000             2               
    96 r.100                   -1000         -1001               
    97 r.101                 3009.54      -991.968               
    98 r.102                       2             2               
    99 r.103                      -2         -1001               
   100 r.104                -992.583      -992.583               
   101 r.105                -983.408      -983.408               
   102 r.106                -984.665      -984.665               
   103 r.107                 22.3391      -983.408               
   104 r.108                 21.0818      -984.665               
   105 r.109                 23.7394      -983.944               
   106 r.110                 1023.74      -988.304               
   107 r.111                -978.383      -983.944               
   108 r.112                 21.6175      -988.304               
   109 r.113                    1000             2               
   110 r.114                   -1000         -1001               
   111 r.115                 3023.74      -977.048               
   112 r.116                       2             2               
   113 r.117                      -2         -1001               
   114 r.118                -978.383      -985.799               
   115 r.119                       2             2               
   116 r.120                      -2         -1001               
   117 r.121                 996.072       16.6093               
   118 r.122                    1000             2               
   119 r.123                   -1000         -1001               
   120 r.124                 2001.62       16.5131               
   121 r.125                    1001             2               
   122 r.126                   -1001         -1001               
   123 r.127                 994.705       16.5921               
   124 r.128                    1001             2               
   125 r.129                   -1001         -1001               
   126 r.130                 1992.81       15.3348               
   127 r.131                       2             2               
   128 r.132                      -2         -1001               
   129 r.133                -999.366      -999.366               
   130 r.134                    1000             2               
   131 r.135                   -1000         -1001               
   132 r.136                    2000      -997.541               
   133 r.137                    1001             2               
   134 r.138                   -1001         -1001               
   135 r.139                 2002.49      -991.968               
   136 r.140                    1001             2               
   137 r.141                   -1001         -1001               
   138 r.142                 2001.86      -992.583               
   139 r.143                -979.867      -999.581               
   140 r.144                 24.1455      -998.002               
   141 r.145                 25.8796      -999.581               
   142 r.146                 1029.89      -998.002               
   143 r.147                 -983.31      -983.944               
   144 r.148                 16.6898      -988.304               
   145 r.149                -983.944      -983.944               
   146 r.150                 16.0561      -988.304               
   147 r.151                 16.6898      -977.048               
   148 r.152                 -983.31      -985.799               
   149 r.153                 16.0561      -977.048               
   150 r.154                -983.944      -985.799               
   151 r.155                       2             2               
   152 r.156                      -2         -1001               
   153 r.157                 995.438       16.6093               
   154 r.158                    1000             2               
   155 r.159                   -1000         -1001               
   156 r.160                 2001.62       16.5131               
   157 r.161                    1001             2               
   158 r.162                   -1001         -1001               
   159 r.163                 994.071       16.5921               
   160 r.164                    1001             2               
   161 r.165                   -1001         -1001               
   162 r.166                 1992.81       15.3348               
   163 r.167                       2             2               
   164 r.168                      -2         -1001               
   165 r.169                 997.612      0.418983               
   166 r.170                    1000             2               
   167 r.171                   -1000         -1001               
   168 r.172                 2001.62       1.99839               
   169 r.173                    1001             2               
   170 r.174                   -1001         -1001               
   171 r.175                 2001.86      -991.968               
   172 r.176                    1001             2               
   173 r.177                   -1001         -1001               
   174 r.178                 2001.86      -992.583               
   175 r.179                -977.479      -999.366               
   176 r.180                 22.5208      -997.541               
   177 r.181                 28.2678      -999.366               
   178 r.182                 1028.27      -997.541               
   179 r.183                -983.944      -983.944               
   180 r.184                 16.0561      -988.304               
   181 r.185                -983.944      -983.944               
   182 r.186                 16.0561      -988.304               
   183 r.187                    1001             2               
   184 r.188                   -1001         -1001               
   185 r.189                 2016.06      -977.048               
   186 r.190                    1001             2               
   187 r.191                   -1001         -1001               
   188 r.192                 2016.06      -985.799               
   189 r.193                    1001             2               
   190 r.194                   -1001         -1001               
   191 r.195                 1993.58       16.6093               
   192 r.196                    1001             2               
   193 r.197                   -1001         -1001               
   194 r.198                 1999.77       16.5131               
   195 r.199                    1000             2               
   196 r.200                   -1000         -1001               
   197 r.201                 992.216       16.5921               
   198 r.202                       2             2               
   199 r.203                      -2         -1001               
   200 r.204                 990.959       15.3348               
   201 r.205                    1001             2               
   202 r.206                   -1001         -1001               
   203 r.207                 1995.76      0.418983               
   204 r.208                    1001             2               
   205 r.209                   -1001         -1001               
   206 r.210                 1999.77       1.99839               
   207 r.211                    1001             2               
   208 r.212                   -1001         -1001               
   209 r.213                 1998.14      0.633656               
   210 r.214                    1001             2               
   211 r.215                   -1001         -1001               
   212 r.216                 1998.14        2.4587               
   213 r.217                  24.376      -991.968               
   214 r.218                -975.624      -992.583               
   215 r.219                 1030.12      -991.968               
   216 r.220                  30.123      -992.583               
   217 r.221                    1001             2               
   218 r.222                   -1001         -1001               
   219 r.223                  2014.2      -983.944               
   220 r.224                    1001             2               
   221 r.225                   -1001         -1001               
   222 r.226                  2014.2      -988.304               
   223 r.227                 14.2009      -977.048               
   224 r.228                -985.799      -985.799               
   225 r.229                 14.2009      -977.048               
   226 r.230                -985.799      -985.799               
   227 r.231                -961.423      -983.944               
   228 r.232                 38.5769      -988.304               
   229 r.233                 44.3239      -983.944               
   230 r.234                 1044.32      -988.304               
   231 r.235                    1001             2               
   232 r.236                   -1001         -1001               
   233 r.237                  1985.8        8.0315               
   234 r.238                    1001             2               
   235 r.239                   -1001         -1001               
   236 r.240                  1985.8       7.41654               
   237 r.241                    1001             2               
   238 r.242                   -1001         -1001               
   239 r.243                    2000      -977.048               
   240 r.244                    1001             2               
   241 r.245                   -1001         -1001               
   242 r.246                    2000      -985.799               
   243 r.247                    1000             2               
   244 r.248                   -1000         -1001               
   245 r.249                 978.015       16.5921               
   246 r.250                       2             2               
   247 r.251                      -2         -1001               
   248 r.252                 976.758       15.3348               
   249 r.253                    1001             2               
   250 r.254                   -1001         -1001               
   251 r.255                 1983.94      0.633656               
   252 r.256                    1001             2               
   253 r.257                   -1001         -1001               
   254 r.258                 1983.94        2.4587               
   255 r.259                    1001             2               
   256 r.260                   -1001         -1001               
   257 r.261                    2000       16.0561               
   258 r.262                    1001             2               
   259 r.263                   -1001         -1001               
   260 r.264                    2000       11.6955               

   No. Column name       Activity     Lower bound   Upper bound
------ ------------    ------------- ------------- -------------
     1 tt                    42.3958             0               
     2 s_1_1        *              1             0             1 
     3 t_1_1                 18.8633             0               
     4 s_1_8        *              0             0             1 
     5 s_1_7        *              1             0             1 
     6 s_2_1        *              0             0             1 
     7 t_2_1                 16.0561             0               
     8 s_2_8        *              1             0             1 
     9 s_2_7        *              0             0             1 
    10 s_1_2        *              0             0             1 
    11 t_1_2                 1023.74             0               
    12 s_2_2        *              1             0             1 
    13 t_2_2                 21.6175             0               
    14 s_1_3        *              1             0             1 
    15 t_1_3                 16.6898             0               
    16 s_2_3        *              0             0             1 
    17 t_2_3                 16.0561             0               
    18 s_1_4        *              1             0             1 
    19 t_1_4                 16.0561             0               
    20 s_2_4        *              0             0             1 
    21 t_2_4                 16.0561             0               
    22 s_1_5        *              0             0             1 
    23 t_1_5                 14.2009             0               
    24 s_2_5        *              1             0             1 
    25 t_2_5                 14.2009             0               
    26 s_1_6        *              1             0             1 
    27 t_1_6                 38.5769             0               
    28 s_2_6        *              0             0             1 
    29 t_2_6                 1044.32             0               
    30 t_1_7                       0             0               
    31 t_2_7                       0             0               
    32 t_1_8                       0             0               
    33 t_2_8                       0             0               
    34 r_1_1_2      *              1             0             1 
    35 u_1_1_2      *              0             0             1 
    36 r_2_1_2      *              1             0             1 
    37 u_2_1_2      *              0             0             1 
    38 r_1_1_3      *              0             0             1 
    39 u_1_1_3      *              1             0             1 
    40 r_2_1_3      *              1             0             1 
    41 u_2_1_3      *              0             0             1 
    42 r_1_1_4      *              0             0             1 
    43 u_1_1_4      *              1             0             1 
    44 r_2_1_4      *              1             0             1 
    45 u_2_1_4      *              0             0             1 
    46 r_1_1_5      *              1             0             1 
    47 u_1_1_5      *              0             0             1 
    48 r_2_1_5      *              1             0             1 
    49 u_2_1_5      *              0             0             1 
    50 r_1_2_3      *              1             0             1 
    51 u_1_2_3      *              0             0             1 
    52 r_2_2_3      *              1             0             1 
    53 u_2_2_3      *              0             0             1 
    54 r_1_2_4      *              1             0             1 
    55 u_1_2_4      *              0             0             1 
    56 r_2_2_4      *              1             0             1 
    57 u_2_2_4      *              0             0             1 
    58 r_1_2_5      *              1             0             1 
    59 u_1_2_5      *              0             0             1 
    60 r_2_2_5      *              0             0             1 
    61 u_2_2_5      *              1             0             1 
    62 r_1_2_8      *              1             0             1 
    63 u_1_2_8      *              0             0             1 
    64 r_2_2_8      *              0             0             1 
    65 u_2_2_8      *              1             0             1 
    66 r_1_3_4      *              0             0             1 
    67 u_1_3_4      *              1             0             1 
    68 r_2_3_4      *              1             0             1 
    69 u_2_3_4      *              0             0             1 
    70 r_1_3_5      *              1             0             1 
    71 u_1_3_5      *              0             0             1 
    72 r_2_3_5      *              1             0             1 
    73 u_2_3_5      *              0             0             1 
    74 r_1_4_5      *              1             0             1 
    75 u_1_4_5      *              0             0             1 
    76 r_2_4_5      *              1             0             1 
    77 u_2_4_5      *              0             0             1 
    78 r_1_4_8      *              1             0             1 
    79 u_1_4_8      *              0             0             1 
    80 r_2_4_8      *              1             0             1 
    81 u_2_4_8      *              0             0             1 
    82 r_1_5_7      *              1             0             1 
    83 u_1_5_7      *              0             0             1 
    84 r_2_5_7      *              1             0             1 
    85 u_2_5_7      *              0             0             1 
    86 r_1_7_8      *              1             0             1 
    87 u_1_7_8      *              0             0             1 
    88 r_2_7_8      *              1             0             1 
    89 u_2_7_8      *              0             0             1 

Integer feasibility conditions:

KKT.PE: max.abs.err = 4.55e-13 on row 22
        max.rel.err = 2.17e-16 on row 22
        High quality

KKT.PB: max.abs.err = 0.00e+00 on row 0
        max.rel.err = 0.00e+00 on row 0
        High quality

End of output
